c K to QBF translator. (C)Rice University.
c From input file 5-3.lwb
p cnf 214 522
e 214 1 213 0
a 53 0
e 66 212 7 6 5 4 3 2 69 211 0
a 54 55 0
e 72 210 14 13 12 11 10 9 8 75 80 83 86 88 89 209 0
a 56 57 0
e 92 208 19 18 17 16 15 95 98 101 103 105 106 207 0
a 58 0
e 107 206 31 30 29 28 27 26 25 24 23 22 21 20 109 111 117 118 205 0
a 59 60 0
e 122 204 40 39 38 37 36 35 34 33 32 125 128 131 134 137 140 143 146 149 151 152 203 0
a 61 62 0
e 155 202 46 45 44 43 42 41 158 162 165 168 171 174 176 177 201 0
a 63 64 0
e 180 200 50 49 48 47 183 186 189 191 192 199 0
a 65 0
e 193 198 52 51 195 196 197 194 190 187 188 185 184 182 181 178 179 175 172 173 170 169 167 166 164 163 160 161 159 157 156 153 154 150 147 148 144 145 142 141 139 138 136 135 133 132 130 129 127 126 124 123 119 120 121 112 116 113 114 115 110 108 104 102 100 99 97 96 94 93 90 91 87 84 85 82 81 77 79 78 76 74 73 70 71 68 67 0
214  0 
214 -213 -1  0 
213 -214  0 
1 -214  0 
-213 66 212  0 
-66 213  0 
-212 213  0 
-66 -53 -1  0 
53 66  0 
1 66  0 
212 -69 -211  0 
69 -212  0 
211 -212  0 
-69 -53 68  0 
53 69  0 
-68 69  0 
68 -5 -2 -67  0 
5 -68  0 
2 -68  0 
67 -68  0 
-67 3 4 7 6  0 
-3 67  0 
-4 67  0 
-7 67  0 
-6 67  0 
-211 72 210  0 
-72 211  0 
-210 211  0 
72 -70 -71  0 
70 -72  0 
71 -72  0 
-70 -3 54 -55  0 
3 70  0 
-54 70  0 
55 70  0 
-71 -2 -54 -55  0 
2 71  0 
54 71  0 
55 71  0 
210 -75 -80 -83 -86 -88 -89 -209  0 
75 -210  0 
80 -210  0 
83 -210  0 
86 -210  0 
88 -210  0 
89 -210  0 
209 -210  0 
-75 74 14  0 
-74 75  0 
-14 75  0 
-74 -6 73  0 
6 74  0 
-73 74  0 
73 3 2  0 
-3 -73  0 
-2 -73  0 
-80 77 79  0 
-77 80  0 
-79 80  0 
-77 -5 76  0 
5 77  0 
-76 77  0 
76 3 2  0 
-3 -76  0 
-2 -76  0 
79 -10 -78  0 
10 -79  0 
78 -79  0 
-78 9 11  0 
-9 78  0 
-11 78  0 
-83 82 9  0 
-82 83  0 
-9 83  0 
-82 -4 81  0 
4 82  0 
-81 82  0 
81 3 2  0 
-3 -81  0 
-2 -81  0 
-86 84 85  0 
-84 86  0 
-85 86  0 
-84 54 -55  0 
-54 84  0 
55 84  0 
85 -12 -13  0 
12 -85  0 
13 -85  0 
-88 87 8  0 
-87 88  0 
-8 88  0 
-87 -54 -55  0 
54 87  0 
55 87  0 
-89 -13 -14  0 
13 89  0 
14 89  0 
-209 92 208  0 
-92 209  0 
-208 209  0 
92 -90 -91  0 
90 -92  0 
91 -92  0 
-90 -9 56 -57  0 
9 90  0 
-56 90  0 
57 90  0 
-91 -8 -56 -57  0 
8 91  0 
56 91  0 
57 91  0 
208 -95 -98 -101 -103 -105 -106 -207  0 
95 -208  0 
98 -208  0 
101 -208  0 
103 -208  0 
105 -208  0 
106 -208  0 
207 -208  0 
-95 94 18 17  0 
-94 95  0 
-18 95  0 
-17 95  0 
-94 -12 93  0 
12 94  0 
-93 94  0 
93 9 8  0 
-9 -93  0 
-8 -93  0 
-98 97 17  0 
-97 98  0 
-17 98  0 
-97 -11 96  0 
11 97  0 
-96 97  0 
96 9 8  0 
-9 -96  0 
-8 -96  0 
-101 100 16  0 
-100 101  0 
-16 101  0 
-100 -10 99  0 
10 100  0 
-99 100  0 
99 9 8  0 
-9 -99  0 
-8 -99  0 
-103 102 18  0 
-102 103  0 
-18 103  0 
-102 56 -57  0 
-56 102  0 
57 102  0 
-105 104 15  0 
-104 105  0 
-15 105  0 
-104 -56 -57  0 
56 104  0 
57 104  0 
-106 -18 -19  0 
18 106  0 
19 106  0 
-207 107 206  0 
-107 207  0 
-206 207  0 
-107 -58 -15  0 
58 107  0 
15 107  0 
206 -109 -111 -117 -118 -205  0 
109 -206  0 
111 -206  0 
117 -206  0 
118 -206  0 
205 -206  0 
-109 -58 108  0 
58 109  0 
-108 109  0 
108 -27 -20 -30  0 
27 -108  0 
20 -108  0 
30 -108  0 
-111 110 31  0 
-110 111  0 
-31 111  0 
-110 -17 -15  0 
17 110  0 
15 110  0 
-117 112 116  0 
-112 117  0 
-116 117  0 
-112 -16 -15  0 
16 112  0 
15 112  0 
116 -26 -113 -114 -115  0 
26 -116  0 
113 -116  0 
114 -116  0 
115 -116  0 
-113 22 24 28 30 29  0 
-22 113  0 
-24 113  0 
-28 113  0 
-30 113  0 
-29 113  0 
-114 21 23 31 29  0 
-21 114  0 
-23 114  0 
-31 114  0 
-29 114  0 
-115 21 25  0 
-21 115  0 
-25 115  0 
-118 -30 -31  0 
30 118  0 
31 118  0 
-205 122 204  0 
-122 205  0 
-204 205  0 
122 -119 -120 -121  0 
119 -122  0 
120 -122  0 
121 -122  0 
-119 -22 -59 60  0 
22 119  0 
59 119  0 
-60 119  0 
-120 -21 59 -60  0 
21 120  0 
-59 120  0 
60 120  0 
-121 -20 -59 -60  0 
20 121  0 
59 121  0 
60 121  0 
204 -125 -128 -131 -134 -137 -140 -143 -146 -149 -151 -152 -203  0 
125 -204  0 
128 -204  0 
131 -204  0 
134 -204  0 
137 -204  0 
140 -204  0 
143 -204  0 
146 -204  0 
149 -204  0 
151 -204  0 
152 -204  0 
203 -204  0 
-125 124 40  0 
-124 125  0 
-40 125  0 
-124 -29 123  0 
29 124  0 
-123 124  0 
123 22 21 20  0 
-22 -123  0 
-21 -123  0 
-20 -123  0 
-128 127 39 38  0 
-127 128  0 
-39 128  0 
-38 128  0 
-127 -28 126  0 
28 127  0 
-126 127  0 
126 22 21 20  0 
-22 -126  0 
-21 -126  0 
-20 -126  0 
-131 130 33 40  0 
-130 131  0 
-33 131  0 
-40 131  0 
-130 -27 129  0 
27 130  0 
-129 130  0 
129 22 21 20  0 
-22 -129  0 
-21 -129  0 
-20 -129  0 
-134 133 32 34  0 
-133 134  0 
-32 134  0 
-34 134  0 
-133 -26 132  0 
26 133  0 
-132 133  0 
132 22 21 20  0 
-22 -132  0 
-21 -132  0 
-20 -132  0 
-137 136 35  0 
-136 137  0 
-35 137  0 
-136 -25 135  0 
25 136  0 
-135 136  0 
135 22 21 20  0 
-22 -135  0 
-21 -135  0 
-20 -135  0 
-140 139 33  0 
-139 140  0 
-33 140  0 
-139 -24 138  0 
24 139  0 
-138 139  0 
138 22 21 20  0 
-22 -138  0 
-21 -138  0 
-20 -138  0 
-143 142 32  0 
-142 143  0 
-32 143  0 
-142 -23 141  0 
23 142  0 
-141 142  0 
141 22 21 20  0 
-22 -141  0 
-21 -141  0 
-20 -141  0 
-146 144 145  0 
-144 146  0 
-145 146  0 
-144 -59 60  0 
59 144  0 
-60 144  0 
145 -37 -40 -32  0 
37 -145  0 
40 -145  0 
32 -145  0 
-149 147 148  0 
-147 149  0 
-148 149  0 
-147 59 -60  0 
-59 147  0 
60 147  0 
148 -36 -39  0 
36 -148  0 
39 -148  0 
-151 150 38  0 
-150 151  0 
-38 151  0 
-150 -59 -60  0 
59 150  0 
60 150  0 
-152 -39 -40  0 
39 152  0 
40 152  0 
-203 155 202  0 
-155 203  0 
-202 203  0 
155 -153 -154  0 
153 -155  0 
154 -155  0 
-153 -33 61 -62  0 
33 153  0 
-61 153  0 
62 153  0 
-154 -32 -61 -62  0 
32 154  0 
61 154  0 
62 154  0 
202 -158 -162 -165 -168 -171 -174 -176 -177 -201  0 
158 -202  0 
162 -202  0 
165 -202  0 
168 -202  0 
171 -202  0 
174 -202  0 
176 -202  0 
177 -202  0 
201 -202  0 
-158 157 46  0 
-157 158  0 
-46 158  0 
-157 -38 156  0 
38 157  0 
-156 157  0 
156 33 32  0 
-33 -156  0 
-32 -156  0 
-162 160 161 43  0 
-160 162  0 
-161 162  0 
-43 162  0 
-160 -37 159  0 
37 160  0 
-159 160  0 
159 33 32  0 
-33 -159  0 
-32 -159  0 
161 -46 -41  0 
46 -161  0 
41 -161  0 
-165 164 45 44  0 
-164 165  0 
-45 165  0 
-44 165  0 
-164 -36 163  0 
36 164  0 
-163 164  0 
163 33 32  0 
-33 -163  0 
-32 -163  0 
-168 167 42 46  0 
-167 168  0 
-42 168  0 
-46 168  0 
-167 -35 166  0 
35 167  0 
-166 167  0 
166 33 32  0 
-33 -166  0 
-32 -166  0 
-171 170 44  0 
-170 171  0 
-44 171  0 
-170 -34 169  0 
34 170  0 
-169 170  0 
169 33 32  0 
-33 -169  0 
-32 -169  0 
-174 172 173  0 
-172 174  0 
-173 174  0 
-172 61 -62  0 
-61 172  0 
62 172  0 
173 -46 -41  0 
46 -173  0 
41 -173  0 
-176 175 45  0 
-175 176  0 
-45 176  0 
-175 -61 -62  0 
61 175  0 
62 175  0 
-177 -45 -46  0 
45 177  0 
46 177  0 
-201 180 200  0 
-180 201  0 
-200 201  0 
180 -178 -179  0 
178 -180  0 
179 -180  0 
-178 -42 63 -64  0 
42 178  0 
-63 178  0 
64 178  0 
-179 -41 -63 -64  0 
41 179  0 
63 179  0 
64 179  0 
200 -183 -186 -189 -191 -192 -199  0 
183 -200  0 
186 -200  0 
189 -200  0 
191 -200  0 
192 -200  0 
199 -200  0 
-183 182 50  0 
-182 183  0 
-50 183  0 
-182 -44 181  0 
44 182  0 
-181 182  0 
181 42 41  0 
-42 -181  0 
-41 -181  0 
-186 185 49 48  0 
-185 186  0 
-49 186  0 
-48 186  0 
-185 -43 184  0 
43 185  0 
-184 185  0 
184 42 41  0 
-42 -184  0 
-41 -184  0 
-189 187 188  0 
-187 189  0 
-188 189  0 
-187 63 -64  0 
-63 187  0 
64 187  0 
188 -50 -47  0 
50 -188  0 
47 -188  0 
-191 190 49  0 
-190 191  0 
-49 191  0 
-190 -63 -64  0 
63 190  0 
64 190  0 
-192 -49 -50  0 
49 192  0 
50 192  0 
-199 193 198  0 
-193 199  0 
-198 199  0 
-193 -65 -47  0 
65 193  0 
47 193  0 
198 -195 -196 -197  0 
195 -198  0 
196 -198  0 
197 -198  0 
-195 194 52  0 
-194 195  0 
-52 195  0 
-194 -48 -47  0 
48 194  0 
47 194  0 
-196 -65 51  0 
65 196  0 
-51 196  0 
-197 -51 -52  0 
51 197  0 
52 197  0 
